NAME : mtspf.pid19460.gtsp.322122731.tour
COMMENT : Length = 322122731
COMMENT : Found by LKH [Keld Helsgaun] Sat Jan  4 23:59:05 2025
TYPE : TOUR
DIMENSION : 180
TOUR_SECTION
1
155
156
153
154
14
96
93
94
95
13
52
49
50
51
59
60
57
58
64
61
62
63
7
160
157
158
159
56
53
54
55
15
176
173
174
175
27
28
25
26
17
18
141
142
143
144
66
67
68
65
6
164
161
162
163
113
114
115
116
3
42
43
44
41
4
135
136
133
134
12
140
137
138
139
16
82
83
84
81
126
127
128
125
8
73
74
75
76
131
132
129
130
107
108
105
106
98
99
100
97
147
148
145
146
47
48
45
46
177
178
179
180
121
122
123
124
85
86
87
88
110
111
112
109
29
30
31
32
19
20
149
150
151
152
101
102
103
104
11
78
79
80
77
2
166
167
168
165
91
92
89
90
172
169
170
171
9
10
35
36
33
34
37
38
39
40
5
69
70
71
72
120
117
118
119
22
23
24
21
-1
EOF
